c *********************************
c * Circuit generated by BenCGen
c *
c * CarrySkipAdder_72_72_72_InOut_G4T
c *
c * Ports with 1 gate(s): 20
c * Ports with 2 gate(s): 397
c * Ports with 4 gate(s): 18
c * Total gates: 435
c *********************************
p cnf 579 1465
1 219 0
-1 -219 0
1 -218 0
219 -218 0
-1 -219 218 0
1 73 -222 0
-1 73 222 0
1 -73 222 0
-1 -73 -222 0
222 218 -145 0
-222 218 145 0
222 -218 145 0
-222 -218 -145 0
218 -223 0
222 -223 0
-218 -222 223 0
73 -224 0
1 -224 0
-73 -1 224 0
-223 221 0
-224 221 0
223 224 -221 0
2 74 -226 0
-2 74 226 0
2 -74 226 0
-2 -74 -226 0
226 221 -146 0
-226 221 146 0
226 -221 146 0
-226 -221 -146 0
221 -227 0
226 -227 0
-221 -226 227 0
74 -228 0
2 -228 0
-74 -2 228 0
-227 225 0
-228 225 0
227 228 -225 0
3 75 -230 0
-3 75 230 0
3 -75 230 0
-3 -75 -230 0
230 225 -147 0
-230 225 147 0
230 -225 147 0
-230 -225 -147 0
225 -231 0
230 -231 0
-225 -230 231 0
75 -232 0
3 -232 0
-75 -3 232 0
-231 229 0
-232 229 0
231 232 -229 0
4 76 -233 0
-4 76 233 0
4 -76 233 0
-4 -76 -233 0
233 229 -148 0
-233 229 148 0
233 -229 148 0
-233 -229 -148 0
229 -234 0
233 -234 0
-229 -233 234 0
76 -235 0
4 -235 0
-76 -4 235 0
-234 220 0
-235 220 0
234 235 -220 0
222 -236 0
226 -236 0
230 -236 0
233 -236 0
-222 -226 -230 -233 236 0
235 -237 0
-235 237 0
218 -238 0
236 -238 0
-218 -236 238 0
-238 239 0
-220 239 0
238 220 -239 0
5 77 -242 0
-5 77 242 0
5 -77 242 0
-5 -77 -242 0
242 239 -149 0
-242 239 149 0
242 -239 149 0
-242 -239 -149 0
239 -243 0
242 -243 0
-239 -242 243 0
77 -244 0
5 -244 0
-77 -5 244 0
-243 241 0
-244 241 0
243 244 -241 0
6 78 -246 0
-6 78 246 0
6 -78 246 0
-6 -78 -246 0
246 241 -150 0
-246 241 150 0
246 -241 150 0
-246 -241 -150 0
241 -247 0
246 -247 0
-241 -246 247 0
78 -248 0
6 -248 0
-78 -6 248 0
-247 245 0
-248 245 0
247 248 -245 0
7 79 -250 0
-7 79 250 0
7 -79 250 0
-7 -79 -250 0
250 245 -151 0
-250 245 151 0
250 -245 151 0
-250 -245 -151 0
245 -251 0
250 -251 0
-245 -250 251 0
79 -252 0
7 -252 0
-79 -7 252 0
-251 249 0
-252 249 0
251 252 -249 0
8 80 -253 0
-8 80 253 0
8 -80 253 0
-8 -80 -253 0
253 249 -152 0
-253 249 152 0
253 -249 152 0
-253 -249 -152 0
249 -254 0
253 -254 0
-249 -253 254 0
80 -255 0
8 -255 0
-80 -8 255 0
-254 240 0
-255 240 0
254 255 -240 0
242 -256 0
246 -256 0
250 -256 0
253 -256 0
-242 -246 -250 -253 256 0
255 -257 0
-255 257 0
239 -258 0
256 -258 0
-239 -256 258 0
-258 259 0
-240 259 0
258 240 -259 0
9 81 -262 0
-9 81 262 0
9 -81 262 0
-9 -81 -262 0
262 259 -153 0
-262 259 153 0
262 -259 153 0
-262 -259 -153 0
259 -263 0
262 -263 0
-259 -262 263 0
81 -264 0
9 -264 0
-81 -9 264 0
-263 261 0
-264 261 0
263 264 -261 0
10 82 -266 0
-10 82 266 0
10 -82 266 0
-10 -82 -266 0
266 261 -154 0
-266 261 154 0
266 -261 154 0
-266 -261 -154 0
261 -267 0
266 -267 0
-261 -266 267 0
82 -268 0
10 -268 0
-82 -10 268 0
-267 265 0
-268 265 0
267 268 -265 0
11 83 -270 0
-11 83 270 0
11 -83 270 0
-11 -83 -270 0
270 265 -155 0
-270 265 155 0
270 -265 155 0
-270 -265 -155 0
265 -271 0
270 -271 0
-265 -270 271 0
83 -272 0
11 -272 0
-83 -11 272 0
-271 269 0
-272 269 0
271 272 -269 0
12 84 -273 0
-12 84 273 0
12 -84 273 0
-12 -84 -273 0
273 269 -156 0
-273 269 156 0
273 -269 156 0
-273 -269 -156 0
269 -274 0
273 -274 0
-269 -273 274 0
84 -275 0
12 -275 0
-84 -12 275 0
-274 260 0
-275 260 0
274 275 -260 0
262 -276 0
266 -276 0
270 -276 0
273 -276 0
-262 -266 -270 -273 276 0
275 -277 0
-275 277 0
259 -278 0
276 -278 0
-259 -276 278 0
-278 279 0
-260 279 0
278 260 -279 0
13 85 -282 0
-13 85 282 0
13 -85 282 0
-13 -85 -282 0
282 279 -157 0
-282 279 157 0
282 -279 157 0
-282 -279 -157 0
279 -283 0
282 -283 0
-279 -282 283 0
85 -284 0
13 -284 0
-85 -13 284 0
-283 281 0
-284 281 0
283 284 -281 0
14 86 -286 0
-14 86 286 0
14 -86 286 0
-14 -86 -286 0
286 281 -158 0
-286 281 158 0
286 -281 158 0
-286 -281 -158 0
281 -287 0
286 -287 0
-281 -286 287 0
86 -288 0
14 -288 0
-86 -14 288 0
-287 285 0
-288 285 0
287 288 -285 0
15 87 -290 0
-15 87 290 0
15 -87 290 0
-15 -87 -290 0
290 285 -159 0
-290 285 159 0
290 -285 159 0
-290 -285 -159 0
285 -291 0
290 -291 0
-285 -290 291 0
87 -292 0
15 -292 0
-87 -15 292 0
-291 289 0
-292 289 0
291 292 -289 0
16 88 -293 0
-16 88 293 0
16 -88 293 0
-16 -88 -293 0
293 289 -160 0
-293 289 160 0
293 -289 160 0
-293 -289 -160 0
289 -294 0
293 -294 0
-289 -293 294 0
88 -295 0
16 -295 0
-88 -16 295 0
-294 280 0
-295 280 0
294 295 -280 0
282 -296 0
286 -296 0
290 -296 0
293 -296 0
-282 -286 -290 -293 296 0
295 -297 0
-295 297 0
279 -298 0
296 -298 0
-279 -296 298 0
-298 299 0
-280 299 0
298 280 -299 0
17 89 -302 0
-17 89 302 0
17 -89 302 0
-17 -89 -302 0
302 299 -161 0
-302 299 161 0
302 -299 161 0
-302 -299 -161 0
299 -303 0
302 -303 0
-299 -302 303 0
89 -304 0
17 -304 0
-89 -17 304 0
-303 301 0
-304 301 0
303 304 -301 0
18 90 -306 0
-18 90 306 0
18 -90 306 0
-18 -90 -306 0
306 301 -162 0
-306 301 162 0
306 -301 162 0
-306 -301 -162 0
301 -307 0
306 -307 0
-301 -306 307 0
90 -308 0
18 -308 0
-90 -18 308 0
-307 305 0
-308 305 0
307 308 -305 0
19 91 -310 0
-19 91 310 0
19 -91 310 0
-19 -91 -310 0
310 305 -163 0
-310 305 163 0
310 -305 163 0
-310 -305 -163 0
305 -311 0
310 -311 0
-305 -310 311 0
91 -312 0
19 -312 0
-91 -19 312 0
-311 309 0
-312 309 0
311 312 -309 0
20 92 -313 0
-20 92 313 0
20 -92 313 0
-20 -92 -313 0
313 309 -164 0
-313 309 164 0
313 -309 164 0
-313 -309 -164 0
309 -314 0
313 -314 0
-309 -313 314 0
92 -315 0
20 -315 0
-92 -20 315 0
-314 300 0
-315 300 0
314 315 -300 0
302 -316 0
306 -316 0
310 -316 0
313 -316 0
-302 -306 -310 -313 316 0
315 -317 0
-315 317 0
299 -318 0
316 -318 0
-299 -316 318 0
-318 319 0
-300 319 0
318 300 -319 0
21 93 -322 0
-21 93 322 0
21 -93 322 0
-21 -93 -322 0
322 319 -165 0
-322 319 165 0
322 -319 165 0
-322 -319 -165 0
319 -323 0
322 -323 0
-319 -322 323 0
93 -324 0
21 -324 0
-93 -21 324 0
-323 321 0
-324 321 0
323 324 -321 0
22 94 -326 0
-22 94 326 0
22 -94 326 0
-22 -94 -326 0
326 321 -166 0
-326 321 166 0
326 -321 166 0
-326 -321 -166 0
321 -327 0
326 -327 0
-321 -326 327 0
94 -328 0
22 -328 0
-94 -22 328 0
-327 325 0
-328 325 0
327 328 -325 0
23 95 -330 0
-23 95 330 0
23 -95 330 0
-23 -95 -330 0
330 325 -167 0
-330 325 167 0
330 -325 167 0
-330 -325 -167 0
325 -331 0
330 -331 0
-325 -330 331 0
95 -332 0
23 -332 0
-95 -23 332 0
-331 329 0
-332 329 0
331 332 -329 0
24 96 -333 0
-24 96 333 0
24 -96 333 0
-24 -96 -333 0
333 329 -168 0
-333 329 168 0
333 -329 168 0
-333 -329 -168 0
329 -334 0
333 -334 0
-329 -333 334 0
96 -335 0
24 -335 0
-96 -24 335 0
-334 320 0
-335 320 0
334 335 -320 0
322 -336 0
326 -336 0
330 -336 0
333 -336 0
-322 -326 -330 -333 336 0
335 -337 0
-335 337 0
319 -338 0
336 -338 0
-319 -336 338 0
-338 339 0
-320 339 0
338 320 -339 0
25 97 -342 0
-25 97 342 0
25 -97 342 0
-25 -97 -342 0
342 339 -169 0
-342 339 169 0
342 -339 169 0
-342 -339 -169 0
339 -343 0
342 -343 0
-339 -342 343 0
97 -344 0
25 -344 0
-97 -25 344 0
-343 341 0
-344 341 0
343 344 -341 0
26 98 -346 0
-26 98 346 0
26 -98 346 0
-26 -98 -346 0
346 341 -170 0
-346 341 170 0
346 -341 170 0
-346 -341 -170 0
341 -347 0
346 -347 0
-341 -346 347 0
98 -348 0
26 -348 0
-98 -26 348 0
-347 345 0
-348 345 0
347 348 -345 0
27 99 -350 0
-27 99 350 0
27 -99 350 0
-27 -99 -350 0
350 345 -171 0
-350 345 171 0
350 -345 171 0
-350 -345 -171 0
345 -351 0
350 -351 0
-345 -350 351 0
99 -352 0
27 -352 0
-99 -27 352 0
-351 349 0
-352 349 0
351 352 -349 0
28 100 -353 0
-28 100 353 0
28 -100 353 0
-28 -100 -353 0
353 349 -172 0
-353 349 172 0
353 -349 172 0
-353 -349 -172 0
349 -354 0
353 -354 0
-349 -353 354 0
100 -355 0
28 -355 0
-100 -28 355 0
-354 340 0
-355 340 0
354 355 -340 0
342 -356 0
346 -356 0
350 -356 0
353 -356 0
-342 -346 -350 -353 356 0
355 -357 0
-355 357 0
339 -358 0
356 -358 0
-339 -356 358 0
-358 359 0
-340 359 0
358 340 -359 0
29 101 -362 0
-29 101 362 0
29 -101 362 0
-29 -101 -362 0
362 359 -173 0
-362 359 173 0
362 -359 173 0
-362 -359 -173 0
359 -363 0
362 -363 0
-359 -362 363 0
101 -364 0
29 -364 0
-101 -29 364 0
-363 361 0
-364 361 0
363 364 -361 0
30 102 -366 0
-30 102 366 0
30 -102 366 0
-30 -102 -366 0
366 361 -174 0
-366 361 174 0
366 -361 174 0
-366 -361 -174 0
361 -367 0
366 -367 0
-361 -366 367 0
102 -368 0
30 -368 0
-102 -30 368 0
-367 365 0
-368 365 0
367 368 -365 0
31 103 -370 0
-31 103 370 0
31 -103 370 0
-31 -103 -370 0
370 365 -175 0
-370 365 175 0
370 -365 175 0
-370 -365 -175 0
365 -371 0
370 -371 0
-365 -370 371 0
103 -372 0
31 -372 0
-103 -31 372 0
-371 369 0
-372 369 0
371 372 -369 0
32 104 -373 0
-32 104 373 0
32 -104 373 0
-32 -104 -373 0
373 369 -176 0
-373 369 176 0
373 -369 176 0
-373 -369 -176 0
369 -374 0
373 -374 0
-369 -373 374 0
104 -375 0
32 -375 0
-104 -32 375 0
-374 360 0
-375 360 0
374 375 -360 0
362 -376 0
366 -376 0
370 -376 0
373 -376 0
-362 -366 -370 -373 376 0
375 -377 0
-375 377 0
359 -378 0
376 -378 0
-359 -376 378 0
-378 379 0
-360 379 0
378 360 -379 0
33 105 -382 0
-33 105 382 0
33 -105 382 0
-33 -105 -382 0
382 379 -177 0
-382 379 177 0
382 -379 177 0
-382 -379 -177 0
379 -383 0
382 -383 0
-379 -382 383 0
105 -384 0
33 -384 0
-105 -33 384 0
-383 381 0
-384 381 0
383 384 -381 0
34 106 -386 0
-34 106 386 0
34 -106 386 0
-34 -106 -386 0
386 381 -178 0
-386 381 178 0
386 -381 178 0
-386 -381 -178 0
381 -387 0
386 -387 0
-381 -386 387 0
106 -388 0
34 -388 0
-106 -34 388 0
-387 385 0
-388 385 0
387 388 -385 0
35 107 -390 0
-35 107 390 0
35 -107 390 0
-35 -107 -390 0
390 385 -179 0
-390 385 179 0
390 -385 179 0
-390 -385 -179 0
385 -391 0
390 -391 0
-385 -390 391 0
107 -392 0
35 -392 0
-107 -35 392 0
-391 389 0
-392 389 0
391 392 -389 0
36 108 -393 0
-36 108 393 0
36 -108 393 0
-36 -108 -393 0
393 389 -180 0
-393 389 180 0
393 -389 180 0
-393 -389 -180 0
389 -394 0
393 -394 0
-389 -393 394 0
108 -395 0
36 -395 0
-108 -36 395 0
-394 380 0
-395 380 0
394 395 -380 0
382 -396 0
386 -396 0
390 -396 0
393 -396 0
-382 -386 -390 -393 396 0
395 -397 0
-395 397 0
379 -398 0
396 -398 0
-379 -396 398 0
-398 399 0
-380 399 0
398 380 -399 0
37 109 -402 0
-37 109 402 0
37 -109 402 0
-37 -109 -402 0
402 399 -181 0
-402 399 181 0
402 -399 181 0
-402 -399 -181 0
399 -403 0
402 -403 0
-399 -402 403 0
109 -404 0
37 -404 0
-109 -37 404 0
-403 401 0
-404 401 0
403 404 -401 0
38 110 -406 0
-38 110 406 0
38 -110 406 0
-38 -110 -406 0
406 401 -182 0
-406 401 182 0
406 -401 182 0
-406 -401 -182 0
401 -407 0
406 -407 0
-401 -406 407 0
110 -408 0
38 -408 0
-110 -38 408 0
-407 405 0
-408 405 0
407 408 -405 0
39 111 -410 0
-39 111 410 0
39 -111 410 0
-39 -111 -410 0
410 405 -183 0
-410 405 183 0
410 -405 183 0
-410 -405 -183 0
405 -411 0
410 -411 0
-405 -410 411 0
111 -412 0
39 -412 0
-111 -39 412 0
-411 409 0
-412 409 0
411 412 -409 0
40 112 -413 0
-40 112 413 0
40 -112 413 0
-40 -112 -413 0
413 409 -184 0
-413 409 184 0
413 -409 184 0
-413 -409 -184 0
409 -414 0
413 -414 0
-409 -413 414 0
112 -415 0
40 -415 0
-112 -40 415 0
-414 400 0
-415 400 0
414 415 -400 0
402 -416 0
406 -416 0
410 -416 0
413 -416 0
-402 -406 -410 -413 416 0
415 -417 0
-415 417 0
399 -418 0
416 -418 0
-399 -416 418 0
-418 419 0
-400 419 0
418 400 -419 0
41 113 -422 0
-41 113 422 0
41 -113 422 0
-41 -113 -422 0
422 419 -185 0
-422 419 185 0
422 -419 185 0
-422 -419 -185 0
419 -423 0
422 -423 0
-419 -422 423 0
113 -424 0
41 -424 0
-113 -41 424 0
-423 421 0
-424 421 0
423 424 -421 0
42 114 -426 0
-42 114 426 0
42 -114 426 0
-42 -114 -426 0
426 421 -186 0
-426 421 186 0
426 -421 186 0
-426 -421 -186 0
421 -427 0
426 -427 0
-421 -426 427 0
114 -428 0
42 -428 0
-114 -42 428 0
-427 425 0
-428 425 0
427 428 -425 0
43 115 -430 0
-43 115 430 0
43 -115 430 0
-43 -115 -430 0
430 425 -187 0
-430 425 187 0
430 -425 187 0
-430 -425 -187 0
425 -431 0
430 -431 0
-425 -430 431 0
115 -432 0
43 -432 0
-115 -43 432 0
-431 429 0
-432 429 0
431 432 -429 0
44 116 -433 0
-44 116 433 0
44 -116 433 0
-44 -116 -433 0
433 429 -188 0
-433 429 188 0
433 -429 188 0
-433 -429 -188 0
429 -434 0
433 -434 0
-429 -433 434 0
116 -435 0
44 -435 0
-116 -44 435 0
-434 420 0
-435 420 0
434 435 -420 0
422 -436 0
426 -436 0
430 -436 0
433 -436 0
-422 -426 -430 -433 436 0
435 -437 0
-435 437 0
419 -438 0
436 -438 0
-419 -436 438 0
-438 439 0
-420 439 0
438 420 -439 0
45 117 -442 0
-45 117 442 0
45 -117 442 0
-45 -117 -442 0
442 439 -189 0
-442 439 189 0
442 -439 189 0
-442 -439 -189 0
439 -443 0
442 -443 0
-439 -442 443 0
117 -444 0
45 -444 0
-117 -45 444 0
-443 441 0
-444 441 0
443 444 -441 0
46 118 -446 0
-46 118 446 0
46 -118 446 0
-46 -118 -446 0
446 441 -190 0
-446 441 190 0
446 -441 190 0
-446 -441 -190 0
441 -447 0
446 -447 0
-441 -446 447 0
118 -448 0
46 -448 0
-118 -46 448 0
-447 445 0
-448 445 0
447 448 -445 0
47 119 -450 0
-47 119 450 0
47 -119 450 0
-47 -119 -450 0
450 445 -191 0
-450 445 191 0
450 -445 191 0
-450 -445 -191 0
445 -451 0
450 -451 0
-445 -450 451 0
119 -452 0
47 -452 0
-119 -47 452 0
-451 449 0
-452 449 0
451 452 -449 0
48 120 -453 0
-48 120 453 0
48 -120 453 0
-48 -120 -453 0
453 449 -192 0
-453 449 192 0
453 -449 192 0
-453 -449 -192 0
449 -454 0
453 -454 0
-449 -453 454 0
120 -455 0
48 -455 0
-120 -48 455 0
-454 440 0
-455 440 0
454 455 -440 0
442 -456 0
446 -456 0
450 -456 0
453 -456 0
-442 -446 -450 -453 456 0
455 -457 0
-455 457 0
439 -458 0
456 -458 0
-439 -456 458 0
-458 459 0
-440 459 0
458 440 -459 0
49 121 -462 0
-49 121 462 0
49 -121 462 0
-49 -121 -462 0
462 459 -193 0
-462 459 193 0
462 -459 193 0
-462 -459 -193 0
459 -463 0
462 -463 0
-459 -462 463 0
121 -464 0
49 -464 0
-121 -49 464 0
-463 461 0
-464 461 0
463 464 -461 0
50 122 -466 0
-50 122 466 0
50 -122 466 0
-50 -122 -466 0
466 461 -194 0
-466 461 194 0
466 -461 194 0
-466 -461 -194 0
461 -467 0
466 -467 0
-461 -466 467 0
122 -468 0
50 -468 0
-122 -50 468 0
-467 465 0
-468 465 0
467 468 -465 0
51 123 -470 0
-51 123 470 0
51 -123 470 0
-51 -123 -470 0
470 465 -195 0
-470 465 195 0
470 -465 195 0
-470 -465 -195 0
465 -471 0
470 -471 0
-465 -470 471 0
123 -472 0
51 -472 0
-123 -51 472 0
-471 469 0
-472 469 0
471 472 -469 0
52 124 -473 0
-52 124 473 0
52 -124 473 0
-52 -124 -473 0
473 469 -196 0
-473 469 196 0
473 -469 196 0
-473 -469 -196 0
469 -474 0
473 -474 0
-469 -473 474 0
124 -475 0
52 -475 0
-124 -52 475 0
-474 460 0
-475 460 0
474 475 -460 0
462 -476 0
466 -476 0
470 -476 0
473 -476 0
-462 -466 -470 -473 476 0
475 -477 0
-475 477 0
459 -478 0
476 -478 0
-459 -476 478 0
-478 479 0
-460 479 0
478 460 -479 0
53 125 -482 0
-53 125 482 0
53 -125 482 0
-53 -125 -482 0
482 479 -197 0
-482 479 197 0
482 -479 197 0
-482 -479 -197 0
479 -483 0
482 -483 0
-479 -482 483 0
125 -484 0
53 -484 0
-125 -53 484 0
-483 481 0
-484 481 0
483 484 -481 0
54 126 -486 0
-54 126 486 0
54 -126 486 0
-54 -126 -486 0
486 481 -198 0
-486 481 198 0
486 -481 198 0
-486 -481 -198 0
481 -487 0
486 -487 0
-481 -486 487 0
126 -488 0
54 -488 0
-126 -54 488 0
-487 485 0
-488 485 0
487 488 -485 0
55 127 -490 0
-55 127 490 0
55 -127 490 0
-55 -127 -490 0
490 485 -199 0
-490 485 199 0
490 -485 199 0
-490 -485 -199 0
485 -491 0
490 -491 0
-485 -490 491 0
127 -492 0
55 -492 0
-127 -55 492 0
-491 489 0
-492 489 0
491 492 -489 0
56 128 -493 0
-56 128 493 0
56 -128 493 0
-56 -128 -493 0
493 489 -200 0
-493 489 200 0
493 -489 200 0
-493 -489 -200 0
489 -494 0
493 -494 0
-489 -493 494 0
128 -495 0
56 -495 0
-128 -56 495 0
-494 480 0
-495 480 0
494 495 -480 0
482 -496 0
486 -496 0
490 -496 0
493 -496 0
-482 -486 -490 -493 496 0
495 -497 0
-495 497 0
479 -498 0
496 -498 0
-479 -496 498 0
-498 499 0
-480 499 0
498 480 -499 0
57 129 -502 0
-57 129 502 0
57 -129 502 0
-57 -129 -502 0
502 499 -201 0
-502 499 201 0
502 -499 201 0
-502 -499 -201 0
499 -503 0
502 -503 0
-499 -502 503 0
129 -504 0
57 -504 0
-129 -57 504 0
-503 501 0
-504 501 0
503 504 -501 0
58 130 -506 0
-58 130 506 0
58 -130 506 0
-58 -130 -506 0
506 501 -202 0
-506 501 202 0
506 -501 202 0
-506 -501 -202 0
501 -507 0
506 -507 0
-501 -506 507 0
130 -508 0
58 -508 0
-130 -58 508 0
-507 505 0
-508 505 0
507 508 -505 0
59 131 -510 0
-59 131 510 0
59 -131 510 0
-59 -131 -510 0
510 505 -203 0
-510 505 203 0
510 -505 203 0
-510 -505 -203 0
505 -511 0
510 -511 0
-505 -510 511 0
131 -512 0
59 -512 0
-131 -59 512 0
-511 509 0
-512 509 0
511 512 -509 0
60 132 -513 0
-60 132 513 0
60 -132 513 0
-60 -132 -513 0
513 509 -204 0
-513 509 204 0
513 -509 204 0
-513 -509 -204 0
509 -514 0
513 -514 0
-509 -513 514 0
132 -515 0
60 -515 0
-132 -60 515 0
-514 500 0
-515 500 0
514 515 -500 0
502 -516 0
506 -516 0
510 -516 0
513 -516 0
-502 -506 -510 -513 516 0
515 -517 0
-515 517 0
499 -518 0
516 -518 0
-499 -516 518 0
-518 519 0
-500 519 0
518 500 -519 0
61 133 -522 0
-61 133 522 0
61 -133 522 0
-61 -133 -522 0
522 519 -205 0
-522 519 205 0
522 -519 205 0
-522 -519 -205 0
519 -523 0
522 -523 0
-519 -522 523 0
133 -524 0
61 -524 0
-133 -61 524 0
-523 521 0
-524 521 0
523 524 -521 0
62 134 -526 0
-62 134 526 0
62 -134 526 0
-62 -134 -526 0
526 521 -206 0
-526 521 206 0
526 -521 206 0
-526 -521 -206 0
521 -527 0
526 -527 0
-521 -526 527 0
134 -528 0
62 -528 0
-134 -62 528 0
-527 525 0
-528 525 0
527 528 -525 0
63 135 -530 0
-63 135 530 0
63 -135 530 0
-63 -135 -530 0
530 525 -207 0
-530 525 207 0
530 -525 207 0
-530 -525 -207 0
525 -531 0
530 -531 0
-525 -530 531 0
135 -532 0
63 -532 0
-135 -63 532 0
-531 529 0
-532 529 0
531 532 -529 0
64 136 -533 0
-64 136 533 0
64 -136 533 0
-64 -136 -533 0
533 529 -208 0
-533 529 208 0
533 -529 208 0
-533 -529 -208 0
529 -534 0
533 -534 0
-529 -533 534 0
136 -535 0
64 -535 0
-136 -64 535 0
-534 520 0
-535 520 0
534 535 -520 0
522 -536 0
526 -536 0
530 -536 0
533 -536 0
-522 -526 -530 -533 536 0
535 -537 0
-535 537 0
519 -538 0
536 -538 0
-519 -536 538 0
-538 539 0
-520 539 0
538 520 -539 0
65 137 -542 0
-65 137 542 0
65 -137 542 0
-65 -137 -542 0
542 539 -209 0
-542 539 209 0
542 -539 209 0
-542 -539 -209 0
539 -543 0
542 -543 0
-539 -542 543 0
137 -544 0
65 -544 0
-137 -65 544 0
-543 541 0
-544 541 0
543 544 -541 0
66 138 -546 0
-66 138 546 0
66 -138 546 0
-66 -138 -546 0
546 541 -210 0
-546 541 210 0
546 -541 210 0
-546 -541 -210 0
541 -547 0
546 -547 0
-541 -546 547 0
138 -548 0
66 -548 0
-138 -66 548 0
-547 545 0
-548 545 0
547 548 -545 0
67 139 -550 0
-67 139 550 0
67 -139 550 0
-67 -139 -550 0
550 545 -211 0
-550 545 211 0
550 -545 211 0
-550 -545 -211 0
545 -551 0
550 -551 0
-545 -550 551 0
139 -552 0
67 -552 0
-139 -67 552 0
-551 549 0
-552 549 0
551 552 -549 0
68 140 -553 0
-68 140 553 0
68 -140 553 0
-68 -140 -553 0
553 549 -212 0
-553 549 212 0
553 -549 212 0
-553 -549 -212 0
549 -554 0
553 -554 0
-549 -553 554 0
140 -555 0
68 -555 0
-140 -68 555 0
-554 540 0
-555 540 0
554 555 -540 0
542 -556 0
546 -556 0
550 -556 0
553 -556 0
-542 -546 -550 -553 556 0
555 -557 0
-555 557 0
539 -558 0
556 -558 0
-539 -556 558 0
-558 559 0
-540 559 0
558 540 -559 0
69 141 -562 0
-69 141 562 0
69 -141 562 0
-69 -141 -562 0
562 559 -213 0
-562 559 213 0
562 -559 213 0
-562 -559 -213 0
559 -563 0
562 -563 0
-559 -562 563 0
141 -564 0
69 -564 0
-141 -69 564 0
-563 561 0
-564 561 0
563 564 -561 0
70 142 -566 0
-70 142 566 0
70 -142 566 0
-70 -142 -566 0
566 561 -214 0
-566 561 214 0
566 -561 214 0
-566 -561 -214 0
561 -567 0
566 -567 0
-561 -566 567 0
142 -568 0
70 -568 0
-142 -70 568 0
-567 565 0
-568 565 0
567 568 -565 0
71 143 -570 0
-71 143 570 0
71 -143 570 0
-71 -143 -570 0
570 565 -215 0
-570 565 215 0
570 -565 215 0
-570 -565 -215 0
565 -571 0
570 -571 0
-565 -570 571 0
143 -572 0
71 -572 0
-143 -71 572 0
-571 569 0
-572 569 0
571 572 -569 0
72 144 -573 0
-72 144 573 0
72 -144 573 0
-72 -144 -573 0
573 569 -216 0
-573 569 216 0
573 -569 216 0
-573 -569 -216 0
569 -574 0
573 -574 0
-569 -573 574 0
144 -575 0
72 -575 0
-144 -72 575 0
-574 560 0
-575 560 0
574 575 -560 0
562 -576 0
566 -576 0
570 -576 0
573 -576 0
-562 -566 -570 -573 576 0
575 -577 0
-575 577 0
559 -578 0
576 -578 0
-559 -576 578 0
-578 579 0
-560 579 0
578 560 -579 0
579 -217 0
-579 217 0
